c not original file ! May have been modified for weighted vertex coloring problem (edges and vertices stay the same only weights may have been moved to an other file)
p edge 288 3765
e 1 2
e 1 3
e 1 4
e 1 5
e 1 6
e 1 7
e 1 8
e 1 9
e 1 10
e 1 11
e 1 12
e 1 13
e 1 30
e 1 45
e 1 59
e 1 77
e 1 92
e 1 105
e 1 128
e 1 157
e 1 172
e 1 200
e 1 210
e 1 226
e 1 237
e 1 250
e 1 263
e 2 3
e 2 4
e 2 5
e 2 6
e 2 7
e 2 8
e 2 9
e 2 10
e 2 11
e 2 12
e 2 13
e 2 17
e 2 33
e 2 47
e 2 61
e 2 80
e 2 160
e 2 175
e 2 190
e 2 212
e 2 228
e 2 280
e 3 4
e 3 5
e 3 6
e 3 7
e 3 8
e 3 9
e 3 10
e 3 11
e 3 12
e 3 13
e 3 18
e 3 81
e 3 108
e 3 131
e 3 161
e 3 191
e 3 201
e 3 213
e 3 239
e 3 265
e 3 281
e 4 5
e 4 6
e 4 7
e 4 8
e 4 9
e 4 10
e 4 11
e 4 12
e 4 13
e 4 19
e 4 34
e 4 48
e 4 62
e 4 82
e 4 95
e 4 109
e 4 132
e 4 143
e 4 162
e 4 176
e 4 192
e 4 202
e 4 214
e 4 240
e 4 253
e 4 266
e 4 282
e 5 6
e 5 7
e 5 8
e 5 9
e 5 10
e 5 11
e 5 12
e 5 13
e 5 35
e 5 49
e 5 63
e 5 83
e 5 96
e 5 133
e 5 177
e 5 203
e 5 254
e 5 267
e 5 283
e 6 7
e 6 8
e 6 9
e 6 10
e 6 11
e 6 12
e 6 13
e 6 20
e 6 50
e 6 64
e 6 110
e 6 134
e 6 144
e 6 178
e 6 204
e 6 215
e 6 229
e 6 241
e 6 268
e 6 284
e 7 8
e 7 9
e 7 10
e 7 11
e 7 12
e 7 13
e 7 21
e 7 37
e 7 66
e 7 98
e 7 111
e 7 136
e 7 146
e 7 164
e 7 217
e 7 243
e 7 256
e 7 270
e 7 285
e 8 9
e 8 10
e 8 11
e 8 12
e 8 13
e 8 38
e 8 52
e 8 67
e 8 85
e 8 147
e 8 165
e 8 194
e 8 206
e 8 218
e 8 231
e 8 286
e 9 10
e 9 11
e 9 12
e 9 13
e 9 22
e 9 53
e 9 68
e 9 112
e 9 137
e 9 148
e 9 219
e 9 232
e 9 244
e 9 257
e 9 271
e 10 11
e 10 12
e 10 13
e 10 23
e 10 39
e 10 54
e 10 69
e 10 86
e 10 113
e 10 123
e 10 138
e 10 149
e 10 166
e 10 180
e 10 220
e 10 233
e 10 245
e 10 258
e 11 12
e 11 13
e 11 24
e 11 40
e 11 70
e 11 87
e 11 114
e 11 124
e 11 150
e 11 167
e 11 195
e 11 207
e 11 221
e 11 234
e 11 259
e 11 272
e 11 287
e 12 13
e 12 26
e 12 42
e 12 71
e 12 89
e 12 99
e 12 116
e 12 152
e 12 168
e 12 182
e 12 209
e 12 274
e 13 27
e 13 43
e 13 57
e 13 73
e 13 90
e 13 101
e 13 118
e 13 140
e 13 153
e 13 170
e 13 184
e 13 197
e 13 246
e 13 261
e 13 288
e 14 15
e 14 16
e 14 17
e 14 18
e 14 19
e 14 20
e 14 21
e 14 22
e 14 23
e 14 24
e 14 25
e 14 26
e 14 27
e 14 28
e 14 44
e 14 74
e 14 102
e 14 119
e 14 127
e 14 154
e 14 171
e 14 185
e 14 198
e 14 224
e 14 247
e 14 276
e 15 16
e 15 17
e 15 18
e 15 19
e 15 20
e 15 21
e 15 22
e 15 23
e 15 24
e 15 25
e 15 26
e 15 27
e 15 58
e 15 75
e 15 103
e 15 120
e 15 155
e 15 186
e 15 199
e 15 248
e 15 262
e 15 277
e 16 17
e 16 18
e 16 19
e 16 20
e 16 21
e 16 22
e 16 23
e 16 24
e 16 25
e 16 26
e 16 27
e 16 31
e 16 46
e 16 60
e 16 78
e 16 93
e 16 106
e 16 129
e 16 142
e 16 158
e 16 173
e 16 188
e 16 211
e 16 251
e 17 18
e 17 19
e 17 20
e 17 21
e 17 22
e 17 23
e 17 24
e 17 25
e 17 26
e 17 27
e 17 33
e 17 47
e 17 61
e 17 80
e 17 160
e 17 175
e 17 190
e 17 212
e 17 228
e 17 280
e 18 19
e 18 20
e 18 21
e 18 22
e 18 23
e 18 24
e 18 25
e 18 26
e 18 27
e 18 81
e 18 108
e 18 131
e 18 161
e 18 191
e 18 201
e 18 213
e 18 239
e 18 265
e 18 281
e 19 20
e 19 21
e 19 22
e 19 23
e 19 24
e 19 25
e 19 26
e 19 27
e 19 34
e 19 48
e 19 62
e 19 82
e 19 95
e 19 109
e 19 132
e 19 143
e 19 162
e 19 176
e 19 192
e 19 202
e 19 214
e 19 240
e 19 253
e 19 266
e 19 282
e 20 21
e 20 22
e 20 23
e 20 24
e 20 25
e 20 26
e 20 27
e 20 50
e 20 64
e 20 110
e 20 134
e 20 144
e 20 178
e 20 204
e 20 215
e 20 229
e 20 241
e 20 268
e 20 284
e 21 22
e 21 23
e 21 24
e 21 25
e 21 26
e 21 27
e 21 37
e 21 66
e 21 98
e 21 111
e 21 136
e 21 146
e 21 164
e 21 217
e 21 243
e 21 256
e 21 270
e 21 285
e 22 23
e 22 24
e 22 25
e 22 26
e 22 27
e 22 53
e 22 68
e 22 112
e 22 137
e 22 148
e 22 219
e 22 232
e 22 244
e 22 257
e 22 271
e 23 24
e 23 25
e 23 26
e 23 27
e 23 39
e 23 54
e 23 69
e 23 86
e 23 113
e 23 123
e 23 138
e 23 149
e 23 166
e 23 180
e 23 220
e 23 233
e 23 245
e 23 258
e 24 25
e 24 26
e 24 27
e 24 40
e 24 70
e 24 87
e 24 114
e 24 124
e 24 150
e 24 167
e 24 195
e 24 207
e 24 221
e 24 234
e 24 259
e 24 272
e 24 287
e 25 26
e 25 27
e 25 41
e 25 55
e 25 88
e 25 115
e 25 125
e 25 151
e 25 181
e 25 208
e 25 222
e 25 235
e 25 273
e 26 27
e 26 42
e 26 71
e 26 89
e 26 99
e 26 116
e 26 152
e 26 168
e 26 182
e 26 209
e 26 274
e 27 43
e 27 57
e 27 73
e 27 90
e 27 101
e 27 118
e 27 140
e 27 153
e 27 170
e 27 184
e 27 197
e 27 246
e 27 261
e 27 288
e 28 29
e 28 30
e 28 31
e 28 32
e 28 33
e 28 34
e 28 35
e 28 36
e 28 37
e 28 38
e 28 39
e 28 40
e 28 41
e 28 42
e 28 43
e 28 44
e 28 74
e 28 102
e 28 119
e 28 127
e 28 154
e 28 171
e 28 185
e 28 198
e 28 224
e 28 247
e 28 276
e 29 30
e 29 31
e 29 32
e 29 33
e 29 34
e 29 35
e 29 36
e 29 37
e 29 38
e 29 39
e 29 40
e 29 41
e 29 42
e 29 43
e 29 76
e 29 91
e 29 104
e 29 141
e 29 156
e 29 187
e 29 225
e 29 249
e 29 278
e 30 31
e 30 32
e 30 33
e 30 34
e 30 35
e 30 36
e 30 37
e 30 38
e 30 39
e 30 40
e 30 41
e 30 42
e 30 43
e 30 45
e 30 59
e 30 77
e 30 92
e 30 105
e 30 128
e 30 157
e 30 172
e 30 200
e 30 210
e 30 226
e 30 237
e 30 250
e 30 263
e 31 32
e 31 33
e 31 34
e 31 35
e 31 36
e 31 37
e 31 38
e 31 39
e 31 40
e 31 41
e 31 42
e 31 43
e 31 46
e 31 60
e 31 78
e 31 93
e 31 106
e 31 129
e 31 142
e 31 158
e 31 173
e 31 188
e 31 211
e 31 251
e 32 33
e 32 34
e 32 35
e 32 36
e 32 37
e 32 38
e 32 39
e 32 40
e 32 41
e 32 42
e 32 43
e 32 79
e 32 94
e 32 107
e 32 121
e 32 130
e 32 159
e 32 174
e 32 189
e 32 227
e 32 238
e 32 252
e 32 264
e 32 279
e 33 34
e 33 35
e 33 36
e 33 37
e 33 38
e 33 39
e 33 40
e 33 41
e 33 42
e 33 43
e 33 47
e 33 61
e 33 80
e 33 160
e 33 175
e 33 190
e 33 212
e 33 228
e 33 280
e 34 35
e 34 36
e 34 37
e 34 38
e 34 39
e 34 40
e 34 41
e 34 42
e 34 43
e 34 48
e 34 62
e 34 82
e 34 95
e 34 109
e 34 132
e 34 143
e 34 162
e 34 176
e 34 192
e 34 202
e 34 214
e 34 240
e 34 253
e 34 266
e 34 282
e 35 36
e 35 37
e 35 38
e 35 39
e 35 40
e 35 41
e 35 42
e 35 43
e 35 49
e 35 63
e 35 83
e 35 96
e 35 133
e 35 177
e 35 203
e 35 254
e 35 267
e 35 283
e 36 37
e 36 38
e 36 39
e 36 40
e 36 41
e 36 42
e 36 43
e 36 51
e 36 65
e 36 84
e 36 97
e 36 122
e 36 135
e 36 145
e 36 163
e 36 179
e 36 193
e 36 205
e 36 216
e 36 230
e 36 242
e 36 255
e 36 269
e 37 38
e 37 39
e 37 40
e 37 41
e 37 42
e 37 43
e 37 66
e 37 98
e 37 111
e 37 136
e 37 146
e 37 164
e 37 217
e 37 243
e 37 256
e 37 270
e 37 285
e 38 39
e 38 40
e 38 41
e 38 42
e 38 43
e 38 52
e 38 67
e 38 85
e 38 147
e 38 165
e 38 194
e 38 206
e 38 218
e 38 231
e 38 286
e 39 40
e 39 41
e 39 42
e 39 43
e 39 54
e 39 69
e 39 86
e 39 113
e 39 123
e 39 138
e 39 149
e 39 166
e 39 180
e 39 220
e 39 233
e 39 245
e 39 258
e 40 41
e 40 42
e 40 43
e 40 70
e 40 87
e 40 114
e 40 124
e 40 150
e 40 167
e 40 195
e 40 207
e 40 221
e 40 234
e 40 259
e 40 272
e 40 287
e 41 42
e 41 43
e 41 55
e 41 88
e 41 115
e 41 125
e 41 151
e 41 181
e 41 208
e 41 222
e 41 235
e 41 273
e 42 43
e 42 71
e 42 89
e 42 99
e 42 116
e 42 152
e 42 168
e 42 182
e 42 209
e 42 274
e 43 57
e 43 73
e 43 90
e 43 101
e 43 118
e 43 140
e 43 153
e 43 170
e 43 184
e 43 197
e 43 246
e 43 261
e 43 288
e 44 45
e 44 46
e 44 47
e 44 48
e 44 49
e 44 50
e 44 51
e 44 52
e 44 53
e 44 54
e 44 55
e 44 56
e 44 57
e 44 74
e 44 102
e 44 119
e 44 127
e 44 154
e 44 171
e 44 185
e 44 198
e 44 224
e 44 247
e 44 276
e 45 46
e 45 47
e 45 48
e 45 49
e 45 50
e 45 51
e 45 52
e 45 53
e 45 54
e 45 55
e 45 56
e 45 57
e 45 59
e 45 77
e 45 92
e 45 105
e 45 128
e 45 157
e 45 172
e 45 200
e 45 210
e 45 226
e 45 237
e 45 250
e 45 263
e 46 47
e 46 48
e 46 49
e 46 50
e 46 51
e 46 52
e 46 53
e 46 54
e 46 55
e 46 56
e 46 57
e 46 60
e 46 78
e 46 93
e 46 106
e 46 129
e 46 142
e 46 158
e 46 173
e 46 188
e 46 211
e 46 251
e 47 48
e 47 49
e 47 50
e 47 51
e 47 52
e 47 53
e 47 54
e 47 55
e 47 56
e 47 57
e 47 61
e 47 80
e 47 160
e 47 175
e 47 190
e 47 212
e 47 228
e 47 280
e 48 49
e 48 50
e 48 51
e 48 52
e 48 53
e 48 54
e 48 55
e 48 56
e 48 57
e 48 62
e 48 82
e 48 95
e 48 109
e 48 132
e 48 143
e 48 162
e 48 176
e 48 192
e 48 202
e 48 214
e 48 240
e 48 253
e 48 266
e 48 282
e 49 50
e 49 51
e 49 52
e 49 53
e 49 54
e 49 55
e 49 56
e 49 57
e 49 63
e 49 83
e 49 96
e 49 133
e 49 177
e 49 203
e 49 254
e 49 267
e 49 283
e 50 51
e 50 52
e 50 53
e 50 54
e 50 55
e 50 56
e 50 57
e 50 64
e 50 110
e 50 134
e 50 144
e 50 178
e 50 204
e 50 215
e 50 229
e 50 241
e 50 268
e 50 284
e 51 52
e 51 53
e 51 54
e 51 55
e 51 56
e 51 57
e 51 65
e 51 84
e 51 97
e 51 122
e 51 135
e 51 145
e 51 163
e 51 179
e 51 193
e 51 205
e 51 216
e 51 230
e 51 242
e 51 255
e 51 269
e 52 53
e 52 54
e 52 55
e 52 56
e 52 57
e 52 67
e 52 85
e 52 147
e 52 165
e 52 194
e 52 206
e 52 218
e 52 231
e 52 286
e 53 54
e 53 55
e 53 56
e 53 57
e 53 68
e 53 112
e 53 137
e 53 148
e 53 219
e 53 232
e 53 244
e 53 257
e 53 271
e 54 55
e 54 56
e 54 57
e 54 69
e 54 86
e 54 113
e 54 123
e 54 138
e 54 149
e 54 166
e 54 180
e 54 220
e 54 233
e 54 245
e 54 258
e 55 56
e 55 57
e 55 88
e 55 115
e 55 125
e 55 151
e 55 181
e 55 208
e 55 222
e 55 235
e 55 273
e 56 57
e 56 72
e 56 100
e 56 117
e 56 126
e 56 139
e 56 169
e 56 183
e 56 196
e 56 223
e 56 236
e 56 260
e 56 275
e 57 73
e 57 90
e 57 101
e 57 118
e 57 140
e 57 153
e 57 170
e 57 184
e 57 197
e 57 246
e 57 261
e 57 288
e 58 59
e 58 60
e 58 61
e 58 62
e 58 63
e 58 64
e 58 65
e 58 66
e 58 67
e 58 68
e 58 69
e 58 70
e 58 71
e 58 72
e 58 73
e 58 75
e 58 103
e 58 120
e 58 155
e 58 186
e 58 199
e 58 248
e 58 262
e 58 277
e 59 60
e 59 61
e 59 62
e 59 63
e 59 64
e 59 65
e 59 66
e 59 67
e 59 68
e 59 69
e 59 70
e 59 71
e 59 72
e 59 73
e 59 77
e 59 92
e 59 105
e 59 128
e 59 157
e 59 172
e 59 200
e 59 210
e 59 226
e 59 237
e 59 250
e 59 263
e 60 61
e 60 62
e 60 63
e 60 64
e 60 65
e 60 66
e 60 67
e 60 68
e 60 69
e 60 70
e 60 71
e 60 72
e 60 73
e 60 78
e 60 93
e 60 106
e 60 129
e 60 142
e 60 158
e 60 173
e 60 188
e 60 211
e 60 251
e 61 62
e 61 63
e 61 64
e 61 65
e 61 66
e 61 67
e 61 68
e 61 69
e 61 70
e 61 71
e 61 72
e 61 73
e 61 80
e 61 160
e 61 175
e 61 190
e 61 212
e 61 228
e 61 280
e 62 63
e 62 64
e 62 65
e 62 66
e 62 67
e 62 68
e 62 69
e 62 70
e 62 71
e 62 72
e 62 73
e 62 82
e 62 95
e 62 109
e 62 132
e 62 143
e 62 162
e 62 176
e 62 192
e 62 202
e 62 214
e 62 240
e 62 253
e 62 266
e 62 282
e 63 64
e 63 65
e 63 66
e 63 67
e 63 68
e 63 69
e 63 70
e 63 71
e 63 72
e 63 73
e 63 83
e 63 96
e 63 133
e 63 177
e 63 203
e 63 254
e 63 267
e 63 283
e 64 65
e 64 66
e 64 67
e 64 68
e 64 69
e 64 70
e 64 71
e 64 72
e 64 73
e 64 110
e 64 134
e 64 144
e 64 178
e 64 204
e 64 215
e 64 229
e 64 241
e 64 268
e 64 284
e 65 66
e 65 67
e 65 68
e 65 69
e 65 70
e 65 71
e 65 72
e 65 73
e 65 84
e 65 97
e 65 122
e 65 135
e 65 145
e 65 163
e 65 179
e 65 193
e 65 205
e 65 216
e 65 230
e 65 242
e 65 255
e 65 269
e 66 67
e 66 68
e 66 69
e 66 70
e 66 71
e 66 72
e 66 73
e 66 98
e 66 111
e 66 136
e 66 146
e 66 164
e 66 217
e 66 243
e 66 256
e 66 270
e 66 285
e 67 68
e 67 69
e 67 70
e 67 71
e 67 72
e 67 73
e 67 85
e 67 147
e 67 165
e 67 194
e 67 206
e 67 218
e 67 231
e 67 286
e 68 69
e 68 70
e 68 71
e 68 72
e 68 73
e 68 112
e 68 137
e 68 148
e 68 219
e 68 232
e 68 244
e 68 257
e 68 271
e 69 70
e 69 71
e 69 72
e 69 73
e 69 86
e 69 113
e 69 123
e 69 138
e 69 149
e 69 166
e 69 180
e 69 220
e 69 233
e 69 245
e 69 258
e 70 71
e 70 72
e 70 73
e 70 87
e 70 114
e 70 124
e 70 150
e 70 167
e 70 195
e 70 207
e 70 221
e 70 234
e 70 259
e 70 272
e 70 287
e 71 72
e 71 73
e 71 89
e 71 99
e 71 116
e 71 152
e 71 168
e 71 182
e 71 209
e 71 274
e 72 73
e 72 100
e 72 117
e 72 126
e 72 139
e 72 169
e 72 183
e 72 196
e 72 223
e 72 236
e 72 260
e 72 275
e 73 90
e 73 101
e 73 118
e 73 140
e 73 153
e 73 170
e 73 184
e 73 197
e 73 246
e 73 261
e 73 288
e 74 75
e 74 76
e 74 77
e 74 78
e 74 79
e 74 80
e 74 81
e 74 82
e 74 83
e 74 84
e 74 85
e 74 86
e 74 87
e 74 88
e 74 89
e 74 90
e 74 102
e 74 119
e 74 127
e 74 154
e 74 171
e 74 185
e 74 198
e 74 224
e 74 247
e 74 276
e 75 76
e 75 77
e 75 78
e 75 79
e 75 80
e 75 81
e 75 82
e 75 83
e 75 84
e 75 85
e 75 86
e 75 87
e 75 88
e 75 89
e 75 90
e 75 103
e 75 120
e 75 155
e 75 186
e 75 199
e 75 248
e 75 262
e 75 277
e 76 77
e 76 78
e 76 79
e 76 80
e 76 81
e 76 82
e 76 83
e 76 84
e 76 85
e 76 86
e 76 87
e 76 88
e 76 89
e 76 90
e 76 91
e 76 104
e 76 141
e 76 156
e 76 187
e 76 225
e 76 249
e 76 278
e 77 78
e 77 79
e 77 80
e 77 81
e 77 82
e 77 83
e 77 84
e 77 85
e 77 86
e 77 87
e 77 88
e 77 89
e 77 90
e 77 92
e 77 105
e 77 128
e 77 157
e 77 172
e 77 200
e 77 210
e 77 226
e 77 237
e 77 250
e 77 263
e 78 79
e 78 80
e 78 81
e 78 82
e 78 83
e 78 84
e 78 85
e 78 86
e 78 87
e 78 88
e 78 89
e 78 90
e 78 93
e 78 106
e 78 129
e 78 142
e 78 158
e 78 173
e 78 188
e 78 211
e 78 251
e 79 80
e 79 81
e 79 82
e 79 83
e 79 84
e 79 85
e 79 86
e 79 87
e 79 88
e 79 89
e 79 90
e 79 94
e 79 107
e 79 121
e 79 130
e 79 159
e 79 174
e 79 189
e 79 227
e 79 238
e 79 252
e 79 264
e 79 279
e 80 81
e 80 82
e 80 83
e 80 84
e 80 85
e 80 86
e 80 87
e 80 88
e 80 89
e 80 90
e 80 160
e 80 175
e 80 190
e 80 212
e 80 228
e 80 280
e 81 82
e 81 83
e 81 84
e 81 85
e 81 86
e 81 87
e 81 88
e 81 89
e 81 90
e 81 108
e 81 131
e 81 161
e 81 191
e 81 201
e 81 213
e 81 239
e 81 265
e 81 281
e 82 83
e 82 84
e 82 85
e 82 86
e 82 87
e 82 88
e 82 89
e 82 90
e 82 95
e 82 109
e 82 132
e 82 143
e 82 162
e 82 176
e 82 192
e 82 202
e 82 214
e 82 240
e 82 253
e 82 266
e 82 282
e 83 84
e 83 85
e 83 86
e 83 87
e 83 88
e 83 89
e 83 90
e 83 96
e 83 133
e 83 177
e 83 203
e 83 254
e 83 267
e 83 283
e 84 85
e 84 86
e 84 87
e 84 88
e 84 89
e 84 90
e 84 97
e 84 122
e 84 135
e 84 145
e 84 163
e 84 179
e 84 193
e 84 205
e 84 216
e 84 230
e 84 242
e 84 255
e 84 269
e 85 86
e 85 87
e 85 88
e 85 89
e 85 90
e 85 147
e 85 165
e 85 194
e 85 206
e 85 218
e 85 231
e 85 286
e 86 87
e 86 88
e 86 89
e 86 90
e 86 113
e 86 123
e 86 138
e 86 149
e 86 166
e 86 180
e 86 220
e 86 233
e 86 245
e 86 258
e 87 88
e 87 89
e 87 90
e 87 114
e 87 124
e 87 150
e 87 167
e 87 195
e 87 207
e 87 221
e 87 234
e 87 259
e 87 272
e 87 287
e 88 89
e 88 90
e 88 115
e 88 125
e 88 151
e 88 181
e 88 208
e 88 222
e 88 235
e 88 273
e 89 90
e 89 99
e 89 116
e 89 152
e 89 168
e 89 182
e 89 209
e 89 274
e 90 101
e 90 118
e 90 140
e 90 153
e 90 170
e 90 184
e 90 197
e 90 246
e 90 261
e 90 288
e 91 92
e 91 93
e 91 94
e 91 95
e 91 96
e 91 97
e 91 98
e 91 99
e 91 100
e 91 101
e 91 104
e 91 141
e 91 156
e 91 187
e 91 225
e 91 249
e 91 278
e 92 93
e 92 94
e 92 95
e 92 96
e 92 97
e 92 98
e 92 99
e 92 100
e 92 101
e 92 105
e 92 128
e 92 157
e 92 172
e 92 200
e 92 210
e 92 226
e 92 237
e 92 250
e 92 263
e 93 94
e 93 95
e 93 96
e 93 97
e 93 98
e 93 99
e 93 100
e 93 101
e 93 106
e 93 129
e 93 142
e 93 158
e 93 173
e 93 188
e 93 211
e 93 251
e 94 95
e 94 96
e 94 97
e 94 98
e 94 99
e 94 100
e 94 101
e 94 107
e 94 121
e 94 130
e 94 159
e 94 174
e 94 189
e 94 227
e 94 238
e 94 252
e 94 264
e 94 279
e 95 96
e 95 97
e 95 98
e 95 99
e 95 100
e 95 101
e 95 109
e 95 132
e 95 143
e 95 162
e 95 176
e 95 192
e 95 202
e 95 214
e 95 240
e 95 253
e 95 266
e 95 282
e 96 97
e 96 98
e 96 99
e 96 100
e 96 101
e 96 133
e 96 177
e 96 203
e 96 254
e 96 267
e 96 283
e 97 98
e 97 99
e 97 100
e 97 101
e 97 122
e 97 135
e 97 145
e 97 163
e 97 179
e 97 193
e 97 205
e 97 216
e 97 230
e 97 242
e 97 255
e 97 269
e 98 99
e 98 100
e 98 101
e 98 111
e 98 136
e 98 146
e 98 164
e 98 217
e 98 243
e 98 256
e 98 270
e 98 285
e 99 100
e 99 101
e 99 116
e 99 152
e 99 168
e 99 182
e 99 209
e 99 274
e 100 101
e 100 117
e 100 126
e 100 139
e 100 169
e 100 183
e 100 196
e 100 223
e 100 236
e 100 260
e 100 275
e 101 118
e 101 140
e 101 153
e 101 170
e 101 184
e 101 197
e 101 246
e 101 261
e 101 288
e 102 103
e 102 104
e 102 105
e 102 106
e 102 107
e 102 108
e 102 109
e 102 110
e 102 111
e 102 112
e 102 113
e 102 114
e 102 115
e 102 116
e 102 117
e 102 118
e 102 119
e 102 127
e 102 154
e 102 171
e 102 185
e 102 198
e 102 224
e 102 247
e 102 276
e 103 104
e 103 105
e 103 106
e 103 107
e 103 108
e 103 109
e 103 110
e 103 111
e 103 112
e 103 113
e 103 114
e 103 115
e 103 116
e 103 117
e 103 118
e 103 120
e 103 155
e 103 186
e 103 199
e 103 248
e 103 262
e 103 277
e 104 105
e 104 106
e 104 107
e 104 108
e 104 109
e 104 110
e 104 111
e 104 112
e 104 113
e 104 114
e 104 115
e 104 116
e 104 117
e 104 118
e 104 141
e 104 156
e 104 187
e 104 225
e 104 249
e 104 278
e 105 106
e 105 107
e 105 108
e 105 109
e 105 110
e 105 111
e 105 112
e 105 113
e 105 114
e 105 115
e 105 116
e 105 117
e 105 118
e 105 128
e 105 157
e 105 172
e 105 200
e 105 210
e 105 226
e 105 237
e 105 250
e 105 263
e 106 107
e 106 108
e 106 109
e 106 110
e 106 111
e 106 112
e 106 113
e 106 114
e 106 115
e 106 116
e 106 117
e 106 118
e 106 129
e 106 142
e 106 158
e 106 173
e 106 188
e 106 211
e 106 251
e 107 108
e 107 109
e 107 110
e 107 111
e 107 112
e 107 113
e 107 114
e 107 115
e 107 116
e 107 117
e 107 118
e 107 121
e 107 130
e 107 159
e 107 174
e 107 189
e 107 227
e 107 238
e 107 252
e 107 264
e 107 279
e 108 109
e 108 110
e 108 111
e 108 112
e 108 113
e 108 114
e 108 115
e 108 116
e 108 117
e 108 118
e 108 131
e 108 161
e 108 191
e 108 201
e 108 213
e 108 239
e 108 265
e 108 281
e 109 110
e 109 111
e 109 112
e 109 113
e 109 114
e 109 115
e 109 116
e 109 117
e 109 118
e 109 132
e 109 143
e 109 162
e 109 176
e 109 192
e 109 202
e 109 214
e 109 240
e 109 253
e 109 266
e 109 282
e 110 111
e 110 112
e 110 113
e 110 114
e 110 115
e 110 116
e 110 117
e 110 118
e 110 134
e 110 144
e 110 178
e 110 204
e 110 215
e 110 229
e 110 241
e 110 268
e 110 284
e 111 112
e 111 113
e 111 114
e 111 115
e 111 116
e 111 117
e 111 118
e 111 136
e 111 146
e 111 164
e 111 217
e 111 243
e 111 256
e 111 270
e 111 285
e 112 113
e 112 114
e 112 115
e 112 116
e 112 117
e 112 118
e 112 137
e 112 148
e 112 219
e 112 232
e 112 244
e 112 257
e 112 271
e 113 114
e 113 115
e 113 116
e 113 117
e 113 118
e 113 123
e 113 138
e 113 149
e 113 166
e 113 180
e 113 220
e 113 233
e 113 245
e 113 258
e 114 115
e 114 116
e 114 117
e 114 118
e 114 124
e 114 150
e 114 167
e 114 195
e 114 207
e 114 221
e 114 234
e 114 259
e 114 272
e 114 287
e 115 116
e 115 117
e 115 118
e 115 125
e 115 151
e 115 181
e 115 208
e 115 222
e 115 235
e 115 273
e 116 117
e 116 118
e 116 152
e 116 168
e 116 182
e 116 209
e 116 274
e 117 118
e 117 126
e 117 139
e 117 169
e 117 183
e 117 196
e 117 223
e 117 236
e 117 260
e 117 275
e 118 140
e 118 153
e 118 170
e 118 184
e 118 197
e 118 246
e 118 261
e 118 288
e 119 120
e 119 121
e 119 122
e 119 123
e 119 124
e 119 125
e 119 126
e 119 127
e 119 154
e 119 171
e 119 185
e 119 198
e 119 224
e 119 247
e 119 276
e 120 121
e 120 122
e 120 123
e 120 124
e 120 125
e 120 126
e 120 155
e 120 186
e 120 199
e 120 248
e 120 262
e 120 277
e 121 122
e 121 123
e 121 124
e 121 125
e 121 126
e 121 130
e 121 159
e 121 174
e 121 189
e 121 227
e 121 238
e 121 252
e 121 264
e 121 279
e 122 123
e 122 124
e 122 125
e 122 126
e 122 135
e 122 145
e 122 163
e 122 179
e 122 193
e 122 205
e 122 216
e 122 230
e 122 242
e 122 255
e 122 269
e 123 124
e 123 125
e 123 126
e 123 138
e 123 149
e 123 166
e 123 180
e 123 220
e 123 233
e 123 245
e 123 258
e 124 125
e 124 126
e 124 150
e 124 167
e 124 195
e 124 207
e 124 221
e 124 234
e 124 259
e 124 272
e 124 287
e 125 126
e 125 151
e 125 181
e 125 208
e 125 222
e 125 235
e 125 273
e 126 139
e 126 169
e 126 183
e 126 196
e 126 223
e 126 236
e 126 260
e 126 275
e 127 128
e 127 129
e 127 130
e 127 131
e 127 132
e 127 133
e 127 134
e 127 135
e 127 136
e 127 137
e 127 138
e 127 139
e 127 140
e 127 154
e 127 171
e 127 185
e 127 198
e 127 224
e 127 247
e 127 276
e 128 129
e 128 130
e 128 131
e 128 132
e 128 133
e 128 134
e 128 135
e 128 136
e 128 137
e 128 138
e 128 139
e 128 140
e 128 157
e 128 172
e 128 200
e 128 210
e 128 226
e 128 237
e 128 250
e 128 263
e 129 130
e 129 131
e 129 132
e 129 133
e 129 134
e 129 135
e 129 136
e 129 137
e 129 138
e 129 139
e 129 140
e 129 142
e 129 158
e 129 173
e 129 188
e 129 211
e 129 251
e 130 131
e 130 132
e 130 133
e 130 134
e 130 135
e 130 136
e 130 137
e 130 138
e 130 139
e 130 140
e 130 159
e 130 174
e 130 189
e 130 227
e 130 238
e 130 252
e 130 264
e 130 279
e 131 132
e 131 133
e 131 134
e 131 135
e 131 136
e 131 137
e 131 138
e 131 139
e 131 140
e 131 161
e 131 191
e 131 201
e 131 213
e 131 239
e 131 265
e 131 281
e 132 133
e 132 134
e 132 135
e 132 136
e 132 137
e 132 138
e 132 139
e 132 140
e 132 143
e 132 162
e 132 176
e 132 192
e 132 202
e 132 214
e 132 240
e 132 253
e 132 266
e 132 282
e 133 134
e 133 135
e 133 136
e 133 137
e 133 138
e 133 139
e 133 140
e 133 177
e 133 203
e 133 254
e 133 267
e 133 283
e 134 135
e 134 136
e 134 137
e 134 138
e 134 139
e 134 140
e 134 144
e 134 178
e 134 204
e 134 215
e 134 229
e 134 241
e 134 268
e 134 284
e 135 136
e 135 137
e 135 138
e 135 139
e 135 140
e 135 145
e 135 163
e 135 179
e 135 193
e 135 205
e 135 216
e 135 230
e 135 242
e 135 255
e 135 269
e 136 137
e 136 138
e 136 139
e 136 140
e 136 146
e 136 164
e 136 217
e 136 243
e 136 256
e 136 270
e 136 285
e 137 138
e 137 139
e 137 140
e 137 148
e 137 219
e 137 232
e 137 244
e 137 257
e 137 271
e 138 139
e 138 140
e 138 149
e 138 166
e 138 180
e 138 220
e 138 233
e 138 245
e 138 258
e 139 140
e 139 169
e 139 183
e 139 196
e 139 223
e 139 236
e 139 260
e 139 275
e 140 153
e 140 170
e 140 184
e 140 197
e 140 246
e 140 261
e 140 288
e 141 142
e 141 143
e 141 144
e 141 145
e 141 146
e 141 147
e 141 148
e 141 149
e 141 150
e 141 151
e 141 152
e 141 153
e 141 156
e 141 187
e 141 225
e 141 249
e 141 278
e 142 143
e 142 144
e 142 145
e 142 146
e 142 147
e 142 148
e 142 149
e 142 150
e 142 151
e 142 152
e 142 153
e 142 158
e 142 173
e 142 188
e 142 211
e 142 251
e 143 144
e 143 145
e 143 146
e 143 147
e 143 148
e 143 149
e 143 150
e 143 151
e 143 152
e 143 153
e 143 162
e 143 176
e 143 192
e 143 202
e 143 214
e 143 240
e 143 253
e 143 266
e 143 282
e 144 145
e 144 146
e 144 147
e 144 148
e 144 149
e 144 150
e 144 151
e 144 152
e 144 153
e 144 178
e 144 204
e 144 215
e 144 229
e 144 241
e 144 268
e 144 284
e 145 146
e 145 147
e 145 148
e 145 149
e 145 150
e 145 151
e 145 152
e 145 153
e 145 163
e 145 179
e 145 193
e 145 205
e 145 216
e 145 230
e 145 242
e 145 255
e 145 269
e 146 147
e 146 148
e 146 149
e 146 150
e 146 151
e 146 152
e 146 153
e 146 164
e 146 217
e 146 243
e 146 256
e 146 270
e 146 285
e 147 148
e 147 149
e 147 150
e 147 151
e 147 152
e 147 153
e 147 165
e 147 194
e 147 206
e 147 218
e 147 231
e 147 286
e 148 149
e 148 150
e 148 151
e 148 152
e 148 153
e 148 219
e 148 232
e 148 244
e 148 257
e 148 271
e 149 150
e 149 151
e 149 152
e 149 153
e 149 166
e 149 180
e 149 220
e 149 233
e 149 245
e 149 258
e 150 151
e 150 152
e 150 153
e 150 167
e 150 195
e 150 207
e 150 221
e 150 234
e 150 259
e 150 272
e 150 287
e 151 152
e 151 153
e 151 181
e 151 208
e 151 222
e 151 235
e 151 273
e 152 153
e 152 168
e 152 182
e 152 209
e 152 274
e 153 170
e 153 184
e 153 197
e 153 246
e 153 261
e 153 288
e 154 155
e 154 156
e 154 157
e 154 158
e 154 159
e 154 160
e 154 161
e 154 162
e 154 163
e 154 164
e 154 165
e 154 166
e 154 167
e 154 168
e 154 169
e 154 170
e 154 171
e 154 185
e 154 198
e 154 224
e 154 247
e 154 276
e 155 156
e 155 157
e 155 158
e 155 159
e 155 160
e 155 161
e 155 162
e 155 163
e 155 164
e 155 165
e 155 166
e 155 167
e 155 168
e 155 169
e 155 170
e 155 186
e 155 199
e 155 248
e 155 262
e 155 277
e 156 157
e 156 158
e 156 159
e 156 160
e 156 161
e 156 162
e 156 163
e 156 164
e 156 165
e 156 166
e 156 167
e 156 168
e 156 169
e 156 170
e 156 187
e 156 225
e 156 249
e 156 278
e 157 158
e 157 159
e 157 160
e 157 161
e 157 162
e 157 163
e 157 164
e 157 165
e 157 166
e 157 167
e 157 168
e 157 169
e 157 170
e 157 172
e 157 200
e 157 210
e 157 226
e 157 237
e 157 250
e 157 263
e 158 159
e 158 160
e 158 161
e 158 162
e 158 163
e 158 164
e 158 165
e 158 166
e 158 167
e 158 168
e 158 169
e 158 170
e 158 173
e 158 188
e 158 211
e 158 251
e 159 160
e 159 161
e 159 162
e 159 163
e 159 164
e 159 165
e 159 166
e 159 167
e 159 168
e 159 169
e 159 170
e 159 174
e 159 189
e 159 227
e 159 238
e 159 252
e 159 264
e 159 279
e 160 161
e 160 162
e 160 163
e 160 164
e 160 165
e 160 166
e 160 167
e 160 168
e 160 169
e 160 170
e 160 175
e 160 190
e 160 212
e 160 228
e 160 280
e 161 162
e 161 163
e 161 164
e 161 165
e 161 166
e 161 167
e 161 168
e 161 169
e 161 170
e 161 191
e 161 201
e 161 213
e 161 239
e 161 265
e 161 281
e 162 163
e 162 164
e 162 165
e 162 166
e 162 167
e 162 168
e 162 169
e 162 170
e 162 176
e 162 192
e 162 202
e 162 214
e 162 240
e 162 253
e 162 266
e 162 282
e 163 164
e 163 165
e 163 166
e 163 167
e 163 168
e 163 169
e 163 170
e 163 179
e 163 193
e 163 205
e 163 216
e 163 230
e 163 242
e 163 255
e 163 269
e 164 165
e 164 166
e 164 167
e 164 168
e 164 169
e 164 170
e 164 217
e 164 243
e 164 256
e 164 270
e 164 285
e 165 166
e 165 167
e 165 168
e 165 169
e 165 170
e 165 194
e 165 206
e 165 218
e 165 231
e 165 286
e 166 167
e 166 168
e 166 169
e 166 170
e 166 180
e 166 220
e 166 233
e 166 245
e 166 258
e 167 168
e 167 169
e 167 170
e 167 195
e 167 207
e 167 221
e 167 234
e 167 259
e 167 272
e 167 287
e 168 169
e 168 170
e 168 182
e 168 209
e 168 274
e 169 170
e 169 183
e 169 196
e 169 223
e 169 236
e 169 260
e 169 275
e 170 184
e 170 197
e 170 246
e 170 261
e 170 288
e 171 172
e 171 173
e 171 174
e 171 175
e 171 176
e 171 177
e 171 178
e 171 179
e 171 180
e 171 181
e 171 182
e 171 183
e 171 184
e 171 185
e 171 198
e 171 224
e 171 247
e 171 276
e 172 173
e 172 174
e 172 175
e 172 176
e 172 177
e 172 178
e 172 179
e 172 180
e 172 181
e 172 182
e 172 183
e 172 184
e 172 200
e 172 210
e 172 226
e 172 237
e 172 250
e 172 263
e 173 174
e 173 175
e 173 176
e 173 177
e 173 178
e 173 179
e 173 180
e 173 181
e 173 182
e 173 183
e 173 184
e 173 188
e 173 211
e 173 251
e 174 175
e 174 176
e 174 177
e 174 178
e 174 179
e 174 180
e 174 181
e 174 182
e 174 183
e 174 184
e 174 189
e 174 227
e 174 238
e 174 252
e 174 264
e 174 279
e 175 176
e 175 177
e 175 178
e 175 179
e 175 180
e 175 181
e 175 182
e 175 183
e 175 184
e 175 190
e 175 212
e 175 228
e 175 280
e 176 177
e 176 178
e 176 179
e 176 180
e 176 181
e 176 182
e 176 183
e 176 184
e 176 192
e 176 202
e 176 214
e 176 240
e 176 253
e 176 266
e 176 282
e 177 178
e 177 179
e 177 180
e 177 181
e 177 182
e 177 183
e 177 184
e 177 203
e 177 254
e 177 267
e 177 283
e 178 179
e 178 180
e 178 181
e 178 182
e 178 183
e 178 184
e 178 204
e 178 215
e 178 229
e 178 241
e 178 268
e 178 284
e 179 180
e 179 181
e 179 182
e 179 183
e 179 184
e 179 193
e 179 205
e 179 216
e 179 230
e 179 242
e 179 255
e 179 269
e 180 181
e 180 182
e 180 183
e 180 184
e 180 220
e 180 233
e 180 245
e 180 258
e 181 182
e 181 183
e 181 184
e 181 208
e 181 222
e 181 235
e 181 273
e 182 183
e 182 184
e 182 209
e 182 274
e 183 184
e 183 196
e 183 223
e 183 236
e 183 260
e 183 275
e 184 197
e 184 246
e 184 261
e 184 288
e 185 186
e 185 187
e 185 188
e 185 189
e 185 190
e 185 191
e 185 192
e 185 193
e 185 194
e 185 195
e 185 196
e 185 197
e 185 198
e 185 224
e 185 247
e 185 276
e 186 187
e 186 188
e 186 189
e 186 190
e 186 191
e 186 192
e 186 193
e 186 194
e 186 195
e 186 196
e 186 197
e 186 199
e 186 248
e 186 262
e 186 277
e 187 188
e 187 189
e 187 190
e 187 191
e 187 192
e 187 193
e 187 194
e 187 195
e 187 196
e 187 197
e 187 225
e 187 249
e 187 278
e 188 189
e 188 190
e 188 191
e 188 192
e 188 193
e 188 194
e 188 195
e 188 196
e 188 197
e 188 211
e 188 251
e 189 190
e 189 191
e 189 192
e 189 193
e 189 194
e 189 195
e 189 196
e 189 197
e 189 227
e 189 238
e 189 252
e 189 264
e 189 279
e 190 191
e 190 192
e 190 193
e 190 194
e 190 195
e 190 196
e 190 197
e 190 212
e 190 228
e 190 280
e 191 192
e 191 193
e 191 194
e 191 195
e 191 196
e 191 197
e 191 201
e 191 213
e 191 239
e 191 265
e 191 281
e 192 193
e 192 194
e 192 195
e 192 196
e 192 197
e 192 202
e 192 214
e 192 240
e 192 253
e 192 266
e 192 282
e 193 194
e 193 195
e 193 196
e 193 197
e 193 205
e 193 216
e 193 230
e 193 242
e 193 255
e 193 269
e 194 195
e 194 196
e 194 197
e 194 206
e 194 218
e 194 231
e 194 286
e 195 196
e 195 197
e 195 207
e 195 221
e 195 234
e 195 259
e 195 272
e 195 287
e 196 197
e 196 223
e 196 236
e 196 260
e 196 275
e 197 246
e 197 261
e 197 288
e 198 199
e 198 200
e 198 201
e 198 202
e 198 203
e 198 204
e 198 205
e 198 206
e 198 207
e 198 208
e 198 209
e 198 224
e 198 247
e 198 276
e 199 200
e 199 201
e 199 202
e 199 203
e 199 204
e 199 205
e 199 206
e 199 207
e 199 208
e 199 209
e 199 248
e 199 262
e 199 277
e 200 201
e 200 202
e 200 203
e 200 204
e 200 205
e 200 206
e 200 207
e 200 208
e 200 209
e 200 210
e 200 226
e 200 237
e 200 250
e 200 263
e 201 202
e 201 203
e 201 204
e 201 205
e 201 206
e 201 207
e 201 208
e 201 209
e 201 213
e 201 239
e 201 265
e 201 281
e 202 203
e 202 204
e 202 205
e 202 206
e 202 207
e 202 208
e 202 209
e 202 214
e 202 240
e 202 253
e 202 266
e 202 282
e 203 204
e 203 205
e 203 206
e 203 207
e 203 208
e 203 209
e 203 254
e 203 267
e 203 283
e 204 205
e 204 206
e 204 207
e 204 208
e 204 209
e 204 215
e 204 229
e 204 241
e 204 268
e 204 284
e 205 206
e 205 207
e 205 208
e 205 209
e 205 216
e 205 230
e 205 242
e 205 255
e 205 269
e 206 207
e 206 208
e 206 209
e 206 218
e 206 231
e 206 286
e 207 208
e 207 209
e 207 221
e 207 234
e 207 259
e 207 272
e 207 287
e 208 209
e 208 222
e 208 235
e 208 273
e 209 274
e 210 211
e 210 212
e 210 213
e 210 214
e 210 215
e 210 216
e 210 217
e 210 218
e 210 219
e 210 220
e 210 221
e 210 222
e 210 223
e 210 226
e 210 237
e 210 250
e 210 263
e 211 212
e 211 213
e 211 214
e 211 215
e 211 216
e 211 217
e 211 218
e 211 219
e 211 220
e 211 221
e 211 222
e 211 223
e 211 251
e 212 213
e 212 214
e 212 215
e 212 216
e 212 217
e 212 218
e 212 219
e 212 220
e 212 221
e 212 222
e 212 223
e 212 228
e 212 280
e 213 214
e 213 215
e 213 216
e 213 217
e 213 218
e 213 219
e 213 220
e 213 221
e 213 222
e 213 223
e 213 239
e 213 265
e 213 281
e 214 215
e 214 216
e 214 217
e 214 218
e 214 219
e 214 220
e 214 221
e 214 222
e 214 223
e 214 240
e 214 253
e 214 266
e 214 282
e 215 216
e 215 217
e 215 218
e 215 219
e 215 220
e 215 221
e 215 222
e 215 223
e 215 229
e 215 241
e 215 268
e 215 284
e 216 217
e 216 218
e 216 219
e 216 220
e 216 221
e 216 222
e 216 223
e 216 230
e 216 242
e 216 255
e 216 269
e 217 218
e 217 219
e 217 220
e 217 221
e 217 222
e 217 223
e 217 243
e 217 256
e 217 270
e 217 285
e 218 219
e 218 220
e 218 221
e 218 222
e 218 223
e 218 231
e 218 286
e 219 220
e 219 221
e 219 222
e 219 223
e 219 232
e 219 244
e 219 257
e 219 271
e 220 221
e 220 222
e 220 223
e 220 233
e 220 245
e 220 258
e 221 222
e 221 223
e 221 234
e 221 259
e 221 272
e 221 287
e 222 223
e 222 235
e 222 273
e 223 236
e 223 260
e 223 275
e 224 225
e 224 226
e 224 227
e 224 228
e 224 229
e 224 230
e 224 231
e 224 232
e 224 233
e 224 234
e 224 235
e 224 236
e 224 247
e 224 276
e 225 226
e 225 227
e 225 228
e 225 229
e 225 230
e 225 231
e 225 232
e 225 233
e 225 234
e 225 235
e 225 236
e 225 249
e 225 278
e 226 227
e 226 228
e 226 229
e 226 230
e 226 231
e 226 232
e 226 233
e 226 234
e 226 235
e 226 236
e 226 237
e 226 250
e 226 263
e 227 228
e 227 229
e 227 230
e 227 231
e 227 232
e 227 233
e 227 234
e 227 235
e 227 236
e 227 238
e 227 252
e 227 264
e 227 279
e 228 229
e 228 230
e 228 231
e 228 232
e 228 233
e 228 234
e 228 235
e 228 236
e 228 280
e 229 230
e 229 231
e 229 232
e 229 233
e 229 234
e 229 235
e 229 236
e 229 241
e 229 268
e 229 284
e 230 231
e 230 232
e 230 233
e 230 234
e 230 235
e 230 236
e 230 242
e 230 255
e 230 269
e 231 232
e 231 233
e 231 234
e 231 235
e 231 236
e 231 286
e 232 233
e 232 234
e 232 235
e 232 236
e 232 244
e 232 257
e 232 271
e 233 234
e 233 235
e 233 236
e 233 245
e 233 258
e 234 235
e 234 236
e 234 259
e 234 272
e 234 287
e 235 236
e 235 273
e 236 260
e 236 275
e 237 238
e 237 239
e 237 240
e 237 241
e 237 242
e 237 243
e 237 244
e 237 245
e 237 246
e 237 250
e 237 263
e 238 239
e 238 240
e 238 241
e 238 242
e 238 243
e 238 244
e 238 245
e 238 246
e 238 252
e 238 264
e 238 279
e 239 240
e 239 241
e 239 242
e 239 243
e 239 244
e 239 245
e 239 246
e 239 265
e 239 281
e 240 241
e 240 242
e 240 243
e 240 244
e 240 245
e 240 246
e 240 253
e 240 266
e 240 282
e 241 242
e 241 243
e 241 244
e 241 245
e 241 246
e 241 268
e 241 284
e 242 243
e 242 244
e 242 245
e 242 246
e 242 255
e 242 269
e 243 244
e 243 245
e 243 246
e 243 256
e 243 270
e 243 285
e 244 245
e 244 246
e 244 257
e 244 271
e 245 246
e 245 258
e 246 261
e 246 288
e 247 248
e 247 249
e 247 250
e 247 251
e 247 252
e 247 253
e 247 254
e 247 255
e 247 256
e 247 257
e 247 258
e 247 259
e 247 260
e 247 261
e 247 276
e 248 249
e 248 250
e 248 251
e 248 252
e 248 253
e 248 254
e 248 255
e 248 256
e 248 257
e 248 258
e 248 259
e 248 260
e 248 261
e 248 262
e 248 277
e 249 250
e 249 251
e 249 252
e 249 253
e 249 254
e 249 255
e 249 256
e 249 257
e 249 258
e 249 259
e 249 260
e 249 261
e 249 278
e 250 251
e 250 252
e 250 253
e 250 254
e 250 255
e 250 256
e 250 257
e 250 258
e 250 259
e 250 260
e 250 261
e 250 263
e 251 252
e 251 253
e 251 254
e 251 255
e 251 256
e 251 257
e 251 258
e 251 259
e 251 260
e 251 261
e 252 253
e 252 254
e 252 255
e 252 256
e 252 257
e 252 258
e 252 259
e 252 260
e 252 261
e 252 264
e 252 279
e 253 254
e 253 255
e 253 256
e 253 257
e 253 258
e 253 259
e 253 260
e 253 261
e 253 266
e 253 282
e 254 255
e 254 256
e 254 257
e 254 258
e 254 259
e 254 260
e 254 261
e 254 267
e 254 283
e 255 256
e 255 257
e 255 258
e 255 259
e 255 260
e 255 261
e 255 269
e 256 257
e 256 258
e 256 259
e 256 260
e 256 261
e 256 270
e 256 285
e 257 258
e 257 259
e 257 260
e 257 261
e 257 271
e 258 259
e 258 260
e 258 261
e 259 260
e 259 261
e 259 272
e 259 287
e 260 261
e 260 275
e 261 288
e 262 263
e 262 264
e 262 265
e 262 266
e 262 267
e 262 268
e 262 269
e 262 270
e 262 271
e 262 272
e 262 273
e 262 274
e 262 275
e 262 277
e 263 264
e 263 265
e 263 266
e 263 267
e 263 268
e 263 269
e 263 270
e 263 271
e 263 272
e 263 273
e 263 274
e 263 275
e 264 265
e 264 266
e 264 267
e 264 268
e 264 269
e 264 270
e 264 271
e 264 272
e 264 273
e 264 274
e 264 275
e 264 279
e 265 266
e 265 267
e 265 268
e 265 269
e 265 270
e 265 271
e 265 272
e 265 273
e 265 274
e 265 275
e 265 281
e 266 267
e 266 268
e 266 269
e 266 270
e 266 271
e 266 272
e 266 273
e 266 274
e 266 275
e 266 282
e 267 268
e 267 269
e 267 270
e 267 271
e 267 272
e 267 273
e 267 274
e 267 275
e 267 283
e 268 269
e 268 270
e 268 271
e 268 272
e 268 273
e 268 274
e 268 275
e 268 284
e 269 270
e 269 271
e 269 272
e 269 273
e 269 274
e 269 275
e 270 271
e 270 272
e 270 273
e 270 274
e 270 275
e 270 285
e 271 272
e 271 273
e 271 274
e 271 275
e 272 273
e 272 274
e 272 275
e 272 287
e 273 274
e 273 275
e 274 275
e 276 277
e 276 278
e 276 279
e 276 280
e 276 281
e 276 282
e 276 283
e 276 284
e 276 285
e 276 286
e 276 287
e 276 288
e 277 278
e 277 279
e 277 280
e 277 281
e 277 282
e 277 283
e 277 284
e 277 285
e 277 286
e 277 287
e 277 288
e 278 279
e 278 280
e 278 281
e 278 282
e 278 283
e 278 284
e 278 285
e 278 286
e 278 287
e 278 288
e 279 280
e 279 281
e 279 282
e 279 283
e 279 284
e 279 285
e 279 286
e 279 287
e 279 288
e 280 281
e 280 282
e 280 283
e 280 284
e 280 285
e 280 286
e 280 287
e 280 288
e 281 282
e 281 283
e 281 284
e 281 285
e 281 286
e 281 287
e 281 288
e 282 283
e 282 284
e 282 285
e 282 286
e 282 287
e 282 288
e 283 284
e 283 285
e 283 286
e 283 287
e 283 288
e 284 285
e 284 286
e 284 287
e 284 288
e 285 286
e 285 287
e 285 288
e 286 287
e 286 288
e 287 288
